Version identifier: 12.10.0.0 | 2019-11-26 | 843d4de
CPXPARAM_WorkMem                                 16384
CPXPARAM_MIP_Limits_TreeMemory                   24576
Tried aggregator 2 times.
MIP Presolve eliminated 16 rows and 0 columns.
MIP Presolve added 32 rows and 0 columns.
Aggregator did 40 substitutions.
Reduced MIP has 78 rows, 70 columns, and 306 nonzeros.
Reduced MIP has 70 binaries, 0 generals, 0 SOSs, and 0 indicators.
Presolve time = 0,00 sec. (0,62 ticks)
Found incumbent of value 186,000000 after 0,00 sec. (0,71 ticks)
Probing time = 0,00 sec. (0,26 ticks)
Tried aggregator 1 time.
Detecting symmetries...
Reduced MIP has 78 rows, 70 columns, and 306 nonzeros.
Reduced MIP has 70 binaries, 0 generals, 0 SOSs, and 0 indicators.
Presolve time = 0,00 sec. (0,25 ticks)
Probing time = 0,00 sec. (0,26 ticks)
Clique table members: 273.
MIP emphasis: balance optimality and feasibility.
MIP search method: dynamic search.
Parallel mode: deterministic, using up to 16 threads.
Root relaxation solution time = 0,00 sec. (0,17 ticks)

        Nodes                                         Cuts/
   Node  Left     Objective  IInf  Best Integer    Best Bound    ItCnt     Gap

*     0+    0                          186,0000        0,0000           100,00%
*     0+    0                          176,0000        0,0000           100,00%
*     0+    0                          170,0000        0,0000           100,00%
*     0+    0                          164,0000        0,0000           100,00%
      0     0      105,0000    68      164,0000      105,0000       31   35,98%
      0     0      105,0000    68      164,0000     Cuts: 119       51   35,98%
*     0+    0                          163,0000      105,0000            35,58%
      0     0      106,0000    68      163,0000     Cuts: 106       68   34,97%
      0     0      107,1728    68      163,0000     Fract: 13       79   34,25%
      0     0      107,3111    68      163,0000   ZeroHalf: 4       83   34,16%
*     0+    0                          162,0000      107,3111            33,76%
      0     0      107,3529    68      162,0000   ZeroHalf: 2       84   33,73%
*     0+    0                          158,0000      107,3529            32,06%
Detecting symmetries...
      0     0      107,4000    68      158,0000   ZeroHalf: 2       85   32,03%
      0     0      107,5600    68      158,0000   ZeroHalf: 5       87   31,92%
      0     0      107,8197    68      158,0000   ZeroHalf: 4       99   31,76%
      0     0      107,8425    68      158,0000       Cuts: 4      105   31,75%
      0     0      107,8889    68      158,0000      Cuts: 50      110   31,72%
      0     0      108,0000    68      158,0000  ZeroHalf: 15      117   31,65%
      0     0      108,1037    68      158,0000   ZeroHalf: 9      132   31,58%
      0     0      108,4780    68      158,0000   ZeroHalf: 7      145   31,34%
      0     0      108,9438    68      158,0000      Cuts: 39      161   31,05%
      0     0      109,2623    68      158,0000  ZeroHalf: 17      179   30,85%
      0     0      109,3513    68      158,0000      Cuts: 51      194   30,79%
*     0+    0                          157,0000      109,3513            30,35%
      0     0      109,4346    68      157,0000   ZeroHalf: 8      209   30,30%
      0     0      109,4444    68      157,0000      Cuts: 20      216   30,29%
      0     0      109,4969    68      157,0000   ZeroHalf: 2      224   30,26%
      0     0      109,5562    68      157,0000   ZeroHalf: 3      228   30,22%
      0     0      109,6440    68      157,0000       Cuts: 4      242   30,16%
      0     0      109,7082    68      157,0000      Cuts: 40      251   30,12%
      0     0      109,7457    68      157,0000   ZeroHalf: 3      260   30,10%
      0     0      109,7632    68      157,0000      Cuts: 50      264   30,09%
      0     0        cutoff            157,0000      157,0000      264    0,00%
Elapsed time = 0,06 sec. (39,56 ticks, tree = 0,01 MB, solutions = 8)

Clique cuts applied:  7
Cover cuts applied:  13
Flow cuts applied:  1
Mixed integer rounding cuts applied:  20
Zero-half cuts applied:  22
Gomory fractional cuts applied:  1

Root node processing (before b&c):
  Real time             =    0,06 sec. (39,58 ticks)
Parallel b&c, 16 threads:
  Real time             =    0,00 sec. (0,00 ticks)
  Sync time (average)   =    0,00 sec.
  Wait time (average)   =    0,00 sec.
                          ------------
Total (root+branch&cut) =    0,06 sec. (39,58 ticks)
